; benchmark generated from python API
(set-info :status unknown)
(declare-fun L_1 () Real)
(declare-fun A_1 () Real)
(declare-fun B () Real)
(declare-fun S_5 () Real)
(declare-fun S_0 () Real)
(declare-fun S_3 () Real)
(declare-fun L_0 () Real)
(declare-fun A_0 () Real)
(declare-fun S_1 () Real)
(declare-fun S_2 () Real)
(declare-fun S_4 () Real)
(declare-fun A_3 () Real)
(declare-fun L_2 () Real)
(declare-fun A_2 () Real)
(declare-fun A_4 () Real)
(declare-fun A_5 () Real)
(assert
 (let (($x3074 (<= (+ (* (- (/ 2.0 3.0)) S_5) (* (- (/ 1.0 3.0)) A_1) (* (/ 1.0 3.0) L_1) S_3) 0.0)))
 (let (($x15193 (<= (+ (* (- 1.0) A_0) (* (- 2.0) S_4) (* 3.0 S_2) L_0) 0.0)))
 (let (($x39 (>= L_0 0.0)))
 (let (($x49738 (<= (+ (* (- (/ 1.0 3.0)) S_4) (* (/ 1.0 3.0) S_0)) (- 5.0))))
 (let (($x53538 (or (not (<= (+ (* (- 1.0) A_2) L_2 A_1 (* (- 1.0) L_1)) (- 5.0))) $x49738 (<= (+ (* (- (/ 1.0 2.0)) L_1) (* (/ 1.0 2.0) A_1) (* (- (/ 1.0 2.0)) S_4)) (- 5.0)))))
 (let (($x50834 (<= (+ A_2 (* (- 1.0) L_2) (* (- 1.0) S_4)) (- 5.0))))
 (let (($x544 (<= (+ (* (- 1.0) A_2) L_2 A_1 (* (- 1.0) L_1)) (- 5.0))))
 (let (($x21197 (<= (+ (* 2.0 A_2) (* (- 2.0) L_2) S_5 (* (- 3.0) S_4)) 0.0)))
 (let (($x53431 (or $x21197 (<= (+ (* (/ 1.0 2.0) S_5) (* (- 1.0) S_4) (* (/ 1.0 2.0) S_1)) 0.0))))
 (let (($x53425 (or (<= (+ S_5 (* (- (/ 5.0 3.0)) S_4) (* (/ 2.0 3.0) S_0)) 0.0) (<= (+ S_5 (* (- 1.0) L_1) A_1 (* (- 2.0) S_4)) 0.0) $x21197)))
 (let (($x3119 (<= (+ (* (- (/ 1.0 3.0)) S_5) (* (- (/ 2.0 3.0)) A_1) (* (/ 2.0 3.0) L_1) S_2) 0.0)))
 (let (($x2678 (<= (+ A_1 (* (- 1.0) L_1) (* (- 1.0) S_2)) 0.0)))
 (let (($x52190 (<= 0.0 (+ S_5 (* (- 1.0) B) (* (- 3.0) S_2) (* 2.0 S_0)))))
 (let (($x36238 (<= 0.0 (+ (* (- 1.0) A_2) L_2 S_3))))
 (let (($x21995 (<= (+ (* (- 2.0) L_1) (* 2.0 A_1) S_4 (* (- 3.0) S_3)) 0.0)))
 (let (($x53400 (or (<= (+ (* (/ 1.0 2.0) S_4) (* (- 1.0) S_3) (* (/ 1.0 2.0) S_0)) 0.0) $x21995 $x36238)))
 (let ((?x414 (* (- 1.0) S_2)))
 (let ((?x274 (* (- 1.0) B)))
 (let ((?x443 (* (- 1.0) A_2)))
 (let ((?x428 (* (- 1.0) S_4)))
 (let ((?x1329 (* (- 1.0) A_0)))
 (let ((?x300 (* (- 1.0) L_2)))
 (let (($x46279 (or (<= (+ ?x1329 (* (- (/ 1.0 2.0)) S_4) (* (/ 3.0 2.0) S_1) L_0) 0.0) (<= (+ A_2 ?x300 ?x1329 ?x428 S_1 L_0) 0.0))))
 (let ((?x3270 (* (- (/ 1.0 2.0)) S_5)))
 (let ((?x3975 (* (- (/ 1.0 2.0)) L_2)))
 (let ((?x3279 (* (/ 1.0 2.0) A_2)))
 (let (($x53248 (or (<= (+ (* (- (/ 1.0 3.0)) S_5) ?x1329 (* (/ 4.0 3.0) S_1) L_0) 0.0) (<= (+ ?x3279 ?x3975 ?x3270 ?x1329 S_1 L_0) 0.0))))
 (let (($x53166 (or $x36238 (<= (+ (* (- (/ 1.0 2.0)) S_3) (* (/ 1.0 2.0) S_0)) (- 5.0)) (<= (+ (* (- 1.0) L_1) A_1 (* (- 1.0) S_3)) (- 5.0)))))
 (let (($x19644 (<= (+ (* (/ 1.0 2.0) L_1) (* (- (/ 1.0 2.0)) A_1) (* (- (/ 1.0 2.0)) S_4) S_2) 0.0)))
 (let ((?x1304 (* (- 1.0) S_0)))
 (let ((?x1035 (* (- (/ 3.0 2.0)) S_5)))
 (let ((?x5338 (* (- (/ 5.0 2.0)) L_2)))
 (let ((?x5336 (* (/ 5.0 2.0) A_2)))
 (let (($x53102 (or (<= (+ ?x5336 ?x5338 ?x1035 ?x1304) 0.0) (<= (+ (* (- (/ 2.0 3.0)) S_5) (* (/ 5.0 3.0) S_1) ?x1304) 0.0))))
 (let (($x31447 (<= (+ (* 2.0 A_2) (* (- 2.0) L_2) (* (- 2.0) S_4) S_1 ?x1304) 0.0)))
 (let (($x9284 (<= (+ (* (- (/ 3.0 2.0)) A_2) (* (/ 3.0 2.0) L_2) (* (/ 1.0 2.0) S_5) S_1) 0.0)))
 (let (($x50104 (<= (+ ?x3279 ?x3975 ?x3270) (- 5.0))))
 (let (($x52873 (or $x50104 (<= (+ (* (- (/ 1.0 4.0)) S_5) (* (/ 1.0 4.0) S_0)) (- 5.0)) (<= (+ (* (- (/ 1.0 3.0)) S_5) (* (/ 1.0 3.0) A_1) (* (- (/ 1.0 3.0)) L_1)) (- 5.0)))))
 (let ((?x4822 (* 3.0 S_0)))
 (let ((?x3269 (* 4.0 B)))
 (let (($x56 (= L_1 L_0)))
 (let (($x57632 (or $x56 (<= (+ ?x3269 (* (- 4.0) A_1) S_4 ?x4822 (* 4.0 L_1)) 0.0))))
 (let ((?x1954 (* (- (/ 4.0 3.0)) L_1)))
 (let ((?x408 (* (- 1.0) S_1)))
 (let ((?x1633 (* (/ 4.0 3.0) A_1)))
 (let ((?x1635 (* (- (/ 4.0 3.0)) B)))
 (let ((?x1622 (* (- (/ 1.0 3.0)) S_5)))
 (let ((?x1960 (* (- (/ 5.0 3.0)) L_1)))
 (let ((?x1645 (* (/ 5.0 3.0) A_1)))
 (let ((?x1647 (* (- (/ 5.0 3.0)) B)))
 (let ((?x1360 (* (- (/ 2.0 3.0)) S_5)))
 (let ((?x2460 (* (- (/ 3.0 2.0)) L_1)))
 (let ((?x2316 (* (- (/ 1.0 2.0)) S_4)))
 (let ((?x2459 (* (/ 3.0 2.0) A_1)))
 (let ((?x2458 (* (- (/ 3.0 2.0)) B)))
 (let ((?x4805 (* 3.0 L_1)))
 (let ((?x4836 (* 2.0 S_0)))
 (let ((?x4838 (* (- 3.0) A_1)))
 (let ((?x2688 (* 2.0 B)))
 (let (($x2456 (<= (+ (* (/ 1.0 2.0) B) (* (- (/ 1.0 2.0)) A_1) ?x2316 S_2 (* (/ 1.0 2.0) L_1)) 0.0)))
 (let (($x56390 (or $x56 (<= (+ ?x2688 (* (- 2.0) A_1) S_2 S_0 (* 2.0 L_1)) 0.0))))
 (let (($x2470 (<= (+ (* (- 2.0) B) (* 2.0 A_1) ?x428 ?x1304 (* (- 2.0) L_1)) 0.0)))
 (let (($x625 (<= (+ (* (- (/ 1.0 2.0)) B) (* (/ 1.0 2.0) A_1) ?x2316 (* (- (/ 1.0 2.0)) L_1)) (- 5.0))))
 (let (($x9163 (<= (+ ?x3270 (* (/ 1.0 2.0) B) (* (- (/ 1.0 2.0)) A_1) S_3 (* (/ 1.0 2.0) L_0)) 0.0)))
 (let (($x54210 (or (not $x9163) $x36238 (not (<= 0.0 (+ S_5 ?x274 (* (- (/ 3.0 2.0)) S_3) (* (/ 1.0 2.0) S_0)))))))
 (let (($x52194 (or $x36238 (<= (+ ?x1329 (* (- 1.0) S_3) (* 2.0 S_1) L_0) 0.0))))
 (let (($x22136 (<= (+ S_5 (* (- 3.0) L_1) (* 3.0 A_1) (* (- 4.0) S_3)) 0.0)))
 (let (($x52191 (or (<= (+ (* (/ 2.0 5.0) S_5) (* (- 1.0) S_3) (* (/ 3.0 5.0) S_0)) 0.0) $x22136 $x36238)))
 (let (($x49822 (<= (+ ?x1622 (* (- (/ 1.0 3.0)) B) (* (/ 1.0 3.0) A_1) (* (- (/ 1.0 3.0)) L_1)) (- 5.0))))
 (let ((?x1941 (* (/ 1.0 3.0) L_1)))
 (let ((?x1456 (* (- (/ 1.0 3.0)) A_1)))
 (let ((?x1350 (* (- (/ 2.0 3.0)) B)))
 (let ((?x1386 (* (/ 1.0 3.0) S_5)))
 (let ((?x4788 (* 5.0 B)))
 (let (($x4830 (<= (+ S_5 ?x4788 (* (- 5.0) A_1) (* 4.0 S_0) (* 5.0 L_1)) 0.0)))
 (let ((?x2468 (* (- 2.0) B)))
 (let ((?x435 (* (- 1.0) S_5)))
 (let ((?x1278 (* (- 2.0) L_2)))
 (let ((?x1277 (* 2.0 A_2)))
 (let ((?x283 (* (- 1.0) L_1)))
 (let ((?x1282 (* 2.0 L_2)))
 (let ((?x1281 (* (- 2.0) A_2)))
 (let ((?x4226 (* (/ 1.0 2.0) S_0)))
 (let ((?x2463 (* (/ 3.0 2.0) B)))
 (let ((?x5203 (* (/ 3.0 2.0) L_2)))
 (let ((?x3273 (* (- (/ 3.0 2.0)) A_2)))
 (let (($x66 (= L_2 L_1)))
 (let (($x84749 (or $x66 (<= (+ ?x3273 ?x5203 ?x2463 S_3 ?x4226) 0.0) (<= (+ ?x1281 ?x1282 ?x283 A_1 ?x2688 S_3) 0.0))))
 (let (($x84965 (or $x66 (not (<= 0.0 (+ ?x3273 ?x5203 S_5 (* (/ 1.0 2.0) B) ?x4226))) (not (<= 0.0 (+ ?x1281 ?x1282 S_5 ?x283 A_1 B))))))
 (let ((?x1303 (* 3.0 A_1)))
 (let ((?x1305 (* (- 3.0) L_1)))
 (let ((?x2254 (* 4.0 L_2)))
 (let ((?x1313 (* (- 4.0) A_2)))
 (let ((?x3193 (+ (* (- (/ 5.0 2.0)) A_2) (* (/ 5.0 2.0) L_2) S_5 (* (/ 5.0 2.0) B) (* (/ 3.0 2.0) S_0))))
 (let (($x83994 (or $x66 (<= ?x3193 0.0) (<= (+ ?x1313 ?x2254 S_5 ?x1305 ?x1303 ?x3269) 0.0))))
 (let (($x50029 (<= (+ (* (- (/ 1.0 2.0)) A_2) (* (/ 1.0 2.0) L_2) (* (/ 1.0 2.0) B) ?x4226) (- 5.0))))
 (let ((?x2449 (* (- 2.0) S_4)))
 (let ((?x1997 (* (- 3.0) B)))
 (let ((?x1215 (* (- 3.0) L_2)))
 (let ((?x1162 (* 3.0 A_2)))
 (let ((?x15201 (* (- 3.0) S_4)))
 (let ((?x3765 (* (- 4.0) B)))
 (let ((?x3957 (* (- 4.0) L_2)))
 (let ((?x10579 (* 4.0 A_2)))
 (let (($x8472 (<= (+ (* (- (/ 1.0 2.0)) A_2) (* (/ 1.0 2.0) L_2) ?x3270 (* (/ 1.0 2.0) B) S_3) 0.0)))
 (let ((?x3906 (* 3.0 B)))
 (let ((?x1271 (* 2.0 A_1)))
 (let ((?x1272 (* (- 2.0) L_1)))
 (let ((?x1270 (* 3.0 L_2)))
 (let ((?x1269 (* (- 3.0) A_2)))
 (let (($x83013 (or $x66 (<= (+ ?x1281 ?x1282 ?x2688 S_4 S_0) 0.0) (<= (+ ?x1269 ?x1270 ?x1272 ?x1271 ?x3906 S_4) 0.0))))
 (let (($x14709 (<= (+ ?x1162 ?x1215 ?x435 (* 2.0 L_1) (* (- 2.0) A_1) ?x1997) 0.0)))
 (let (($x85572 (or $x66 (<= (+ ?x443 L_2 B ?x1329 (* 2.0 S_1) L_0) 0.0))))
 (let ((?x2206 (* (- (/ 1.0 2.0)) B)))
 (let ((?x3302 (* (/ 1.0 2.0) S_5)))
 (let ((?x3560 (* (/ 1.0 2.0) L_2)))
 (let ((?x3562 (* (- (/ 1.0 2.0)) A_2)))
 (let (($x7807 (not (<= B 5.0))))
 (let (($x1268 (<= (+ ?x1162 ?x1215 ?x435 (* (- 2.0) A_1) (* 2.0 L_1) ?x274) 0.0)))
 (let (($x1949 (<= (+ ?x1622 (* (/ 2.0 3.0) B) (* (- (/ 2.0 3.0)) A_1) S_2 (* (/ 2.0 3.0) L_1)) 0.0)))
 (let (($x1302 (<= (+ A_2 ?x300 (* (- 2.0) A_1) S_0 (* 2.0 L_1) B) 0.0)))
 (let (($x85540 (or $x56 (<= (+ ?x1277 ?x1278 (* (- 1.0) A_1) ?x428 L_1 ?x274) 0.0))))
 (let (($x1294 (<= (+ A_1 ?x414 ?x283 ?x274) 0.0)))
 (let (($x140 (>= S_5 S_4)))
 (let (($x128 (>= S_1 S_0)))
 (let (($x131 (>= S_2 S_1)))
 (let (($x134 (>= S_3 S_2)))
 (let (($x137 (>= S_4 S_3)))
 (let (($x142 (>= A_1 A_0)))
 (let (($x143 (>= A_2 A_1)))
 (let (($x145 (>= A_4 A_3)))
 (let (($x146 (>= A_5 A_4)))
 (and (<= (+ A_2 ?x300) S_5) $x146 $x145 $x143 $x142 $x137 $x134 $x131 $x128 $x140 (or $x66 (not (<= 0.0 (+ ?x300 L_1)))) (or (not (<= 0.0 (+ ?x283 L_0))) $x56) $x1294 (or $x56 (<= (+ (* (- 1.0) A_1) S_1 L_1 B) 0.0)) (or $x66 (<= (+ ?x443 L_2 S_2 B) 0.0)) (or $x66 $x544) (or $x66 (<= (+ ?x1281 ?x1282 A_1 S_3 ?x283 B) 0.0)) (or $x66 (<= (+ ?x443 L_2 ?x1271 ?x1329 ?x1272 ?x274 L_0) 0.0)) (or $x66 (<= (+ ?x1269 ?x1270 ?x1271 S_4 ?x1272 B) 0.0)) (or $x66 (<= (+ ?x443 L_2 ?x1271 ?x408 ?x1272 ?x274) 0.0)) (<= (+ A_2 ?x300 (* (- 1.0) S_3) ?x274) 0.0) $x85540 (or $x66 (<= (+ ?x1281 ?x1282 ?x1303 ?x1304 ?x1305 ?x274) 0.0)) (or $x66 (<= (+ ?x1313 ?x2254 S_5 B ?x1303 ?x1305) 0.0)) (<= (+ ?x274 A_1 (* (- 1.0) S_3) ?x283) (- 5.0)) (<= (+ S_5 ?x1997 ?x1303 (* (- 4.0) S_3) ?x1305) 0.0) (or $x56 $x1302) (or $x56 $x1949) (or $x56 (<= (+ ?x1360 (* (/ 1.0 3.0) B) ?x1456 S_3 ?x1941) 0.0)) (not (<= 0.0 (+ S_5 ?x274 ?x428))) (or $x56 (<= (+ B (* (- 1.0) A_1) S_0 L_1) (- 5.0))) (or $x56 $x1268) (or $x66 (not (<= 0.0 (+ ?x1281 ?x1282 S_5 A_1 ?x283)))) (<= (+ ?x435 (* 2.0 S_2) ?x408) 0.0) (<= (+ ?x1035 (* (/ 5.0 2.0) S_2) ?x1304) 0.0) (<= (+ ?x435 ?x1329 (* 2.0 S_2) L_0) 0.0) (or $x36238 (<= (+ (* (- 1.0) S_3) S_1) (- 5.0))) (<= (+ ?x3279 ?x3975 ?x3270 ?x2206) (- 5.0)) (<= (+ ?x1997 ?x1303 (* (- 2.0) S_3) ?x1304 ?x1305) 0.0) (<= (+ ?x2468 ?x1271 ?x1329 (* (- 1.0) S_3) ?x1272 L_0) 0.0) (<= (+ ?x2468 ?x1271 (* (- 1.0) S_3) ?x408 ?x1272) 0.0) (<= (+ ?x2468 ?x1271 S_4 (* (- 3.0) S_3) ?x1272) 0.0) (<= (+ ?x443 L_2 S_2) 0.0) (or $x2678 (<= (+ ?x414 S_0) (- 5.0))) $x7807 (<= (+ ?x3562 ?x3560 ?x3270 S_3) 0.0) (or $x66 (not (<= 0.0 (+ ?x3562 ?x3560 ?x3302 ?x2206)))) (<= (+ ?x5336 ?x5338 ?x1035 (* (- (/ 5.0 2.0)) B) ?x1304) 0.0) (or $x66 (<= (+ ?x1281 ?x1282 ?x2688 S_3 S_1) 0.0)) $x85572 (or $x66 (<= (+ ?x1281 ?x1282 ?x2688 (* 3.0 S_1) ?x1304) 0.0)) (or $x66 (<= (+ ?x1313 ?x2254 S_5 ?x3269 (* 3.0 S_1)) 0.0)) (or $x2678 (<= (+ ?x3279 ?x3975 ?x2206 ?x414 ?x4226) 0.0)) (or $x66 (<= (+ ?x1269 ?x1270 ?x3906 S_4 (* 2.0 S_1)) 0.0)) (<= (+ ?x1277 ?x1278 ?x435 ?x2468 ?x1329 L_0) 0.0) (<= (+ (* (/ 3.0 2.0) A_2) (* (- (/ 3.0 2.0)) L_2) ?x3270 ?x2458 ?x414) 0.0) $x14709 (or (<= (+ S_4 (* (- 3.0) S_3) (* 2.0 S_1)) 0.0) $x36238) (or $x66 (<= (+ ?x443 L_2 B S_1) (- 5.0))) (or $x36238 (not (<= 0.0 (+ S_5 ?x274 (* (- 2.0) S_3) S_1)))) (or $x66 (not (<= 0.0 (+ ?x1281 ?x1282 S_5 B S_1)))) (not (<= 0.0 (+ S_5 ?x2468 A_1 (* (- 2.0) S_3) ?x283))) (<= (+ A_2 ?x300 ?x274 ?x428) (- 5.0)) (<= (+ ?x2449 (* 3.0 S_2) ?x408) 0.0) (or (<= (+ S_5 (* (- 4.0) S_3) (* 3.0 S_1)) 0.0) $x36238) (or $x2678 (<= (+ ?x443 L_2 S_5 (* (- 3.0) S_2) ?x4822) 0.0)) (or $x2678 (<= (+ ?x443 L_2 S_3 ?x414 S_0) 0.0)) $x83013 (<= (+ ?x1277 ?x1278 ?x2468 ?x428 ?x414) 0.0) (or $x66 $x8472) (<= (+ ?x1162 ?x1215 ?x1997 ?x1329 ?x2449 L_0) 0.0) (<= (+ ?x1277 ?x1278 L_1 (* (- 1.0) A_1) ?x2468 ?x428) 0.0) (<= (+ ?x10579 ?x3957 ?x3765 ?x15201 ?x1304) 0.0) (<= (+ ?x1277 ?x1278 S_5 ?x2468 ?x15201) 0.0) (<= (+ ?x1162 ?x1215 ?x1997 ?x2449 ?x408) 0.0) (or $x66 $x50029 (<= (+ ?x443 L_2 ?x283 A_1 B) (- 5.0))) $x83994 $x84965 $x84749 (<= (+ ?x1277 ?x1278 ?x435 ?x2468 ?x408) 0.0) (or $x56 $x4830) (or $x56 (not (<= 0.0 (+ ?x1386 ?x1350 ?x1456 ?x1941)))) (<= (+ S_5 ?x274 A_1 ?x2449 ?x283) 0.0) (or $x36238 (<= (+ (* (- 2.0) S_3) (* 3.0 S_1) ?x1304) 0.0)) $x49822 $x52191 $x52194 $x54210 (or $x2678 (<= (+ (* (/ 1.0 5.0) S_5) ?x414 (* (/ 4.0 5.0) S_0)) 0.0)) (or $x2678 (<= (+ (* (/ 1.0 4.0) S_4) ?x414 (* (/ 3.0 4.0) S_0)) 0.0)) (or $x2678 (<= (+ ?x443 L_2 S_4 (* (- 2.0) S_2) ?x4836) 0.0)) $x625 $x2470 (or (<= (+ ?x1622 (* (/ 1.0 3.0) S_1)) (- 5.0)) $x50104) (or $x56 (<= (+ ?x3906 ?x4838 S_3 ?x4836 ?x4805) 0.0)) $x56390 (or $x56 $x2456) (or $x56 (not (<= 0.0 (+ S_5 ?x2688 ?x4838 ?x4836 ?x4805)))) (<= (+ ?x2458 ?x2459 ?x2316 ?x408 ?x2460) 0.0) (<= (+ ?x1622 ?x1635 ?x1633 ?x1329 ?x1954 L_0) 0.0) (<= (+ ?x2458 ?x2459 ?x1329 ?x2316 ?x2460 L_0) 0.0) (<= (+ ?x1360 ?x1647 ?x1645 ?x1304 ?x1960) 0.0) (<= (+ ?x1622 ?x1635 ?x1633 ?x408 ?x1954) 0.0) $x57632 $x52873 (<= (+ (* (- 3.0) S_5) ?x1329 (* 4.0 S_3) L_0) 0.0) (or $x9284 (<= (+ A_2 ?x300 ?x435 S_1 ?x1304) 0.0)) (or (<= (+ ?x428 (* 2.0 S_1) ?x1304) 0.0) $x31447) (or (<= (+ ?x2316 (* (/ 1.0 2.0) S_1)) (- 5.0)) $x50834) $x53102 (not (<= 0.0 (+ ?x443 L_2 S_5 ?x2468))) $x19644 $x53166 (not (<= 0.0 (+ S_5 ?x1997 ?x414))) $x53248 $x46279 (or $x2678 (not (<= 0.0 (+ ?x443 L_2 S_5 ?x274 ?x414 S_0)))) (not (<= 0.0 (+ S_5 ?x2468 (* (- 1.0) S_3)))) $x53400 (or $x2678 (not $x52190)) (or $x2678 (<= (+ S_3 (* (- 3.0) S_2) ?x4836) 0.0)) (not (<= 0.0 (+ S_5 ?x3765 ?x408))) $x3119 $x53425 $x53431 (or $x544 $x49738 $x50834) $x53538 $x39 (not (>= (+ L_2 S_5 (* (- 1.0) A_3)) 0.0)) (<= (+ ?x435 S_3) (- 5.0)) (<= (+ ?x1329 S_0 L_0) 0.0) (<= (+ (* (- 2.0) S_5) (* 3.0 S_3) ?x414) 0.0) (<= (+ ?x3270 (* (/ 1.0 2.0) S_2)) (- 5.0)) (<= (+ (* (- 1.0) A_1) L_1 S_1) 0.0) (<= (+ S_5 ?x15201 (* 2.0 S_2)) 0.0) (<= (+ ?x428 S_2) (- 5.0)) $x15193 (<= (+ ?x15201 (* 4.0 S_2) ?x1304) 0.0) (<= (+ (* (- 3.0) S_5) (* 4.0 S_3) ?x408) 0.0) (not (>= (+ S_5 ?x3765 ?x1329 L_0) 0.0)) $x3074 (<= (+ (* (- 4.0) S_5) (* 5.0 S_3) ?x1304) 0.0) (not (>= (+ S_5 (* (- 5.0) B) ?x1304) 0.0)) (not (>= (+ S_5 ?x1997 (* (- 1.0) A_1) L_1) 0.0))))))))))))))))))))))))))))))))))))))))))))))))))))))))))))))))))))))))))))))))))))))))))))))))))))))))))))))))))))))))))))))))))))))))
(check-sat)
